tsp_instances/TSP50/instance25.tsp
NODE_COORD_SECTION
0 112 113
1 108 13
2 161 189
3 106 169
4 186 93
5 93 161
6 125 96
7 64 100
8 109 81
9 190 101
10 135 62
11 52 191
12 19 52
13 51 100
14 23 182
15 73 127
16 197 19
17 116 145
18 141 173
19 138 10
20 144 158
21 141 80
22 164 66
23 84 66
24 96 31
25 22 146
26 84 165
27 55 38
28 4 173
29 30 62
30 1 137
31 54 134
32 188 188
33 112 160
34 76 105
35 40 157
36 47 55
37 95 75
38 177 179
39 57 198
40 66 164
41 25 78
42 150 23
43 54 18
44 65 77
45 11 68
46 143 154
47 7 177
48 156 76
49 197 131
