tsp_instances/TSP50/instance25.opt.tour
TOUR_SECTION
1
7
9
38
24
45
8
14
42
46
13
30
37
28
44
25
2
20
43
17
23
11
22
49
5
10
50
33
39
3
19
21
47
18
34
4
6
27
41
40
12
15
48
29
31
26
36
32
16
35
-1